words_easy_train/words_795_SAT.qaiger
aag 65 16 0 1 49
32
2
14
16
26
22
24
10
28
18
4
30
20
8
12
6
131
34 24 8
36 26 10
38 27 11
40 39 37
42 41 35
44 20 4
46 22 6
48 23 7
50 49 47
52 50 44
54 53 43
56 28 12
58 29 13
60 59 57
62 61 37
64 63 54
66 18 2
68 21 5
70 69 66
72 71 50
74 73 45
76 60 36
78 33 16
80 32 17
82 81 79
84 30 14
86 85 57
88 86 83
90 89 77
92 31 15
94 93 82
96 95 90
98 96 75
100 45 19
102 69 3
104 102 100
106 105 67
108 93 85
110 109 56
112 111 107
114 25 9
116 115 40
118 117 46
120 47 35
122 120 116
124 123 119
126 125 112
128 126 98
130 128 64
i0 2 y1[7]
i1 1 x1[0]
i2 1 x1[6]
i3 1 x1[7]
i4 2 y1[4]
i5 2 y1[2]
i6 2 y1[3]
i7 1 x1[4]
i8 2 y1[5]
i9 2 y1[0]
i10 1 x1[1]
i11 2 y1[6]
i12 2 y1[1]
i13 1 x1[3]
i14 1 x1[5]
i15 1 x1[2]
o0 bool[0]
c
simplified
  !=
    abs
      -194
    add
      1 x1
      2 y1
