words_easy_train/words_795_SAT.qaiger.qdimacs
p cnf 65 148
a 1 2 3 4 5 6 7 8 0
e 9 10 11 12 13 14 15 16 17 18 19 20 21 22 23 24 25 26 27 28 29 30 31 32 33 34 35 36 37 38 39 40 41 42 43 44 45 46 47 48 49 50 51 52 53 54 55 56 57 58 59 60 61 62 63 64 65 0
-12 -4 17 0
12 -17 0
4 -17 0
-13 -5 18 0
13 -18 0
5 -18 0
13 5 19 0
-13 -19 0
-5 -19 0
19 18 20 0
-19 -20 0
-18 -20 0
20 17 21 0
-20 -21 0
-17 -21 0
-10 -2 22 0
10 -22 0
2 -22 0
-11 -3 23 0
11 -23 0
3 -23 0
11 3 24 0
-11 -24 0
-3 -24 0
24 23 25 0
-24 -25 0
-23 -25 0
-25 -22 26 0
25 -26 0
22 -26 0
26 21 27 0
-26 -27 0
-21 -27 0
-14 -6 28 0
14 -28 0
6 -28 0
14 6 29 0
-14 -29 0
-6 -29 0
29 28 30 0
-29 -30 0
-28 -30 0
30 18 31 0
-30 -31 0
-18 -31 0
31 -27 32 0
-31 -32 0
27 -32 0
-9 -1 33 0
9 -33 0
1 -33 0
10 2 34 0
-10 -34 0
-2 -34 0
34 -33 35 0
-34 -35 0
33 -35 0
35 -25 36 0
-35 -36 0
25 -36 0
36 22 37 0
-36 -37 0
-22 -37 0
-30 -18 38 0
30 -38 0
18 -38 0
16 -8 39 0
-16 -39 0
8 -39 0
-16 8 40 0
16 -40 0
-8 -40 0
40 39 41 0
-40 -41 0
-39 -41 0
-15 -7 42 0
15 -42 0
7 -42 0
42 28 43 0
-42 -43 0
-28 -43 0
-43 41 44 0
43 -44 0
-41 -44 0
44 38 45 0
-44 -45 0
-38 -45 0
15 7 46 0
-15 -46 0
-7 -46 0
46 -41 47 0
-46 -47 0
41 -47 0
47 -45 48 0
-47 -48 0
45 -48 0
-48 37 49 0
48 -49 0
-37 -49 0
22 9 50 0
-22 -50 0
-9 -50 0
34 1 51 0
-34 -51 0
-1 -51 0
-51 -50 52 0
51 -52 0
50 -52 0
52 33 53 0
-52 -53 0
-33 -53 0
46 42 54 0
-46 -54 0
-42 -54 0
54 -28 55 0
-54 -55 0
28 -55 0
55 53 56 0
-55 -56 0
-53 -56 0
12 4 57 0
-12 -57 0
-4 -57 0
57 -20 58 0
-57 -58 0
20 -58 0
58 -23 59 0
-58 -59 0
23 -59 0
23 17 60 0
-23 -60 0
-17 -60 0
-60 -58 61 0
60 -61 0
58 -61 0
61 59 62 0
-61 -62 0
-59 -62 0
62 -56 63 0
-62 -63 0
56 -63 0
-63 -49 64 0
63 -64 0
49 -64 0
-64 -32 65 0
64 -65 0
32 -65 0
-65 0
